NAME : TSP Generated Input4
COMMENT : 4-city problem (Randomly generated)
TYPE : TSP
DIMENSION : 4
EDGE_WEIGHT_TYPE : EUC_2D
NODE_COORD_SECTION
1 38.24 20.42
2 39.57 26.15
3 40.56 25.32
4 36.26 23.12
EOF
